c Sudoku solution
p cnf 729 0
127 0
139 0
181 0
223 0
265 0
276 0
297 0
369 0
289 0
528 0
545 0
592 0
615 0
621 0
666 0
684 0
722 0
748 0
857 0
347 0
861 0
874 0
942 0
882 0
959 0
755 0
846 0
983 0
964 0
763 0
567 0
586 0
787 0
995 0
796 0
926 0
491 0
551 0
241 0
175 0
372 0
388 0
485 0
324 0
335 0
311 0
116 0
356 0
254 0
143 0
194 0
393 0
436 0
429 0
649 0
579 0
825 0
444 0
771 0
978 0
899 0
734 0
931 0
719 0
917 0
514 0
533 0
813 0
838 0
412 0
637 0
468 0
652 0
453 0
477 0
218 0
232 0
158 0
162 0
673 0
698 0
